JulietBench/Juliet_Based_Patch_Bench/linux/CWE-189-Numeric-Errors/CVE_2014_3144_05ab8f2647e4221cbdb3856dd7d32bd5407316b3/Result__skb_get_nlattr_nest_SnippetNEQ.smt2
; benchmark generated from python API
(set-info :status unknown)
(declare-fun R () (_ BitVec 32))
(declare-fun rdi () (_ BitVec 64))
(declare-fun rsi () (_ BitVec 64))
(assert
 (let (($x2458 (= (_ bv0 32) R)))
 (let ((?x6 ((_ extract 31 0) rdi)))
 (let (($x114 (bvule ?x6 (_ bv3 32))))
 (let (($x2447 (and $x114 $x2458)))
 (let (($x1200 (bvugt ?x6 (_ bv3 32))))
 (let ((?x7 ((_ zero_extend 32) ?x6)))
 (let ((?x9 (bvsub ?x7 (_ bv4 64))))
 (let (($x55 (bvugt rsi ?x9)))
 (let (($x2448 (and $x55 $x1200 $x2458)))
 (let ((?x68 ((_ extract 15 0) rsi)))
 (let ((?x2455 (concat (_ bv0 16) ?x68)))
 (let (($x2454 (= R ?x2455)))
 (let (($x13 (bvule rsi ?x9)))
 (let ((?x1206 (bvsub ?x7 rsi)))
 (let ((?x69 ((_ zero_extend 48) ?x68)))
 (let (($x2111 (bvule ?x69 ?x1206)))
 (let (($x2449 (and $x2111 $x13 $x1200 $x2454)))
 (let (($x2469 (bvugt ?x69 ?x1206)))
 (let (($x2450 (and $x2469 $x13 $x1200 $x2458)))
 (let (($x2446 (or $x2450 $x2449 $x2448 $x2447)))
 (let (($x2443 (not $x2446)))
 (let (($x2452 (and $x55 $x2458)))
 (let ((?x59 (bvsub rsi ?x7)))
 (let (($x65 (bvule ?x69 ?x59)))
 (let (($x2453 (and $x65 $x13 $x2454)))
 (let (($x1185 (bvugt ?x69 ?x59)))
 (let (($x2457 (and $x1185 $x13 $x2458)))
 (let (($x2451 (or $x2457 $x2453 $x2452)))
 (let (($x2444 (not $x2451)))
 (let (($x2442 (and $x2444 $x2443)))
 (let (($x2445 (and $x2451 $x2446)))
 (let (($x2441 (or $x2445 $x2442)))
 (not $x2441))))))))))))))))))))))))))))))))))
(check-sat)
